TYPE : Vertex Cover
DIMENSION: 36
EDGE_DATA_SECTION:
0 2
0 8
0 13
0 19
0 24
0 25
0 27
0 29
0 34
0 35
1 2
1 9
1 12
1 14
1 20
1 23
1 25
1 26
2 12
2 13
2 19
2 20
2 21
2 27
2 30
3 6
3 14
3 22
3 24
3 25
3 28
4 8
4 15
4 16
4 17
4 19
4 21
4 24
5 10
5 11
5 18
5 19
5 20
5 23
5 27
5 35
6 12
6 15
6 30
6 31
6 32
6 33
6 34
7 8
7 10
7 15
7 17
7 19
7 28
7 30
8 30
8 32
8 33
9 10
9 18
9 20
9 22
9 28
10 18
10 21
10 22
10 25
10 26
10 29
10 32
11 16
11 17
11 19
11 20
11 31
12 17
12 21
12 30
13 17
13 30
14 28
14 32
16 18
16 20
16 25
16 27
16 30
17 21
17 22
17 24
18 19
18 20
18 24
18 26
18 30
18 35
19 22
19 23
19 24
19 25
19 26
19 28
19 29
19 30
19 32
19 35
20 24
20 29
20 32
21 25
21 27
21 28
21 29
22 24
22 26
22 31
24 26
24 33
25 26
26 30
27 31
27 32
27 33
28 30
28 31
28 34
29 35
30 33
32 34
-1
VERTEX_DEGREE:
10.0 8.0 9.0 6.0 7.0 8.0 8.0 7.0 6.0 6.0 10.0 6.0 6.0 4.0 4.0 3.0 7.0 8.0 10.0 17.0 10.0 9.0 8.0 3.0 10.0 8.0 8.0 8.0 9.0 6.0 12.0 5.0 8.0 5.0 4.0 5.0
VERTEX_COVER:
0 1 2 3 4 5 6 7 10 16 17 18 19 20 21 22 26 28 30 31 32 33 35
EOF
